p cnf 95 324
3 -1 0
3 2 0
1 -2 -3 0
4 5 -6 0
-4 -5 -6 0
4 -5 6 0
-4 5 6 0
7 -3 0
7 6 0
3 -6 -7 0
9 7 0
9 8 0
-7 -8 -9 0
-11 -10 0
-11 -3 0
10 3 11 0
14 13 0
14 -1 0
-13 1 -14 0
-15 -12 0
-15 14 0
12 -14 15 0
11 -15 -16 0
-11 15 -16 0
11 15 16 0
-11 -15 16 0
17 -9 0
17 16 0
9 -16 -17 0
-19 18 0
-19 12 0
-18 -12 19 0
-8 -19 -20 0
8 19 -20 0
-8 19 20 0
8 -19 20 0
2 -18 -21 0
-2 18 -21 0
2 18 21 0
-2 -18 21 0
-22 21 0
-22 -1 0
-21 1 22 0
23 -20 0
23 -22 0
20 22 -23 0
-17 -23 -24 0
17 23 -24 0
-17 23 24 0
17 -23 24 0
-25 -8 0
-25 7 0
8 -7 25 0
-26 24 0
-26 25 0
-24 -25 26 0
-27 13 0
-27 -1 0
-13 1 27 0
27 8 -28 0
-27 -8 -28 0
27 -8 28 0
-27 8 28 0
-29 28 0
-29 3 0
-28 -3 29 0
-30 18 0
-30 -29 0
-18 29 30 0
-10 -31 -32 0
10 31 -32 0
-10 31 32 0
10 -31 32 0
-33 -8 0
-33 32 0
8 -32 33 0
-34 -33 0
-34 -12 0
33 12 34 0
-35 34 0
-35 -21 0
-34 21 35 0
36 -30 0
36 35 0
30 -35 -36 0
-37 -26 0
-37 36 0
26 -36 37 0
-38 18 0
-38 8 0
-18 -8 38 0
39 -5 0
39 -12 0
5 12 -39 0
41 -10 0
41 -40 0
10 40 -41 0
42 41 0
42 2 0
-41 -2 -42 0
-43 39 0
-43 42 0
-39 -42 43 0
44 -38 0
44 -43 0
38 43 -44 0
-42 -14 -45 0
42 14 -45 0
-42 14 45 0
42 -14 45 0
-47 2 0
-47 -46 0
-2 46 47 0
10 -19 -48 0
-10 19 -48 0
10 19 48 0
-10 -19 48 0
-49 47 0
-49 48 0
-47 -48 49 0
-45 49 -50 0
45 -49 -50 0
-45 -49 50 0
45 49 50 0
51 44 0
51 50 0
-44 -50 -51 0
37 -51 -52 0
-37 51 -52 0
37 51 52 0
-37 -51 52 0
54 15 0
54 53 0
-15 -53 -54 0
52 -54 -55 0
-52 54 -55 0
52 54 55 0
-52 -54 55 0
-28 41 -56 0
28 -41 -56 0
-28 -41 56 0
28 41 56 0
-43 -2 -57 0
43 2 -57 0
-43 2 57 0
43 -2 57 0
58 -57 0
58 1 0
57 -1 -58 0
-59 56 0
-59 -58 0
-56 58 59 0
60 3 -61 0
-60 -3 -61 0
60 -3 61 0
-60 3 61 0
12 -42 -62 0
-12 42 -62 0
12 42 62 0
-12 -42 62 0
-63 -32 0
-63 -62 0
32 62 63 0
-64 -61 0
-64 63 0
61 -63 64 0
-65 59 0
-65 64 0
-59 -64 65 0
55 65 -66 0
-55 -65 -66 0
55 -65 66 0
-55 65 66 0
67 19 0
67 6 0
-19 -6 -67 0
-63 14 -68 0
63 -14 -68 0
-63 -14 68 0
63 14 68 0
67 -68 -69 0
-67 68 -69 0
67 68 69 0
-67 -68 69 0
70 -63 0
70 -4 0
63 4 -70 0
-71 4 0
-71 -2 0
-4 2 71 0
72 6 0
72 -71 0
-6 71 -72 0
73 -70 0
73 -72 0
70 72 -73 0
-74 -69 0
-74 73 0
69 -73 74 0
75 11 0
75 -28 0
-11 28 -75 0
76 3 0
76 12 0
-3 -12 -76 0
-77 -76 0
-77 -8 0
76 8 77 0
-75 -77 -78 0
75 77 -78 0
-75 77 78 0
75 -77 78 0
74 -78 -79 0
-74 78 -79 0
74 78 79 0
-74 -78 79 0
19 13 -80 0
-19 -13 -80 0
19 -13 80 0
-19 13 80 0
81 41 0
81 -12 0
-41 12 -81 0
82 -81 0
82 -34 0
81 34 -82 0
-83 38 0
-83 -15 0
-38 15 83 0
-32 18 -84 0
32 -18 -84 0
-32 -18 84 0
32 18 84 0
83 84 -85 0
-83 -84 -85 0
83 -84 85 0
-83 84 85 0
86 -82 0
86 85 0
82 -85 -86 0
87 -68 0
87 13 0
68 -13 -87 0
88 -86 0
88 -87 0
86 87 -88 0
89 80 0
89 -88 0
-80 88 -89 0
42 46 -90 0
-42 -46 -90 0
42 -46 90 0
-42 46 90 0
-91 76 0
-91 12 0
-76 -12 91 0
92 -90 0
92 91 0
90 -91 -92 0
-93 89 0
-93 -92 0
-89 92 93 0
79 -93 -94 0
-79 93 -94 0
79 93 94 0
-79 -93 94 0
95 -66 0
95 -94 0
66 94 -95 0
-26 73 19 0
-90 22 0
-80 -57 -15 0
-53 4 -89 -31 0
-30 71 -47 0
31 93 -25 -51 0
15 -75 0
54 -79 0
-34 -41 72 -82 0
86 -7 56 0
60 85 -7 0
-26 87 -2 38 -17 -12 0
72 -21 32 51 0
61 -7 3 29 -83 -69 0
85 -33 -83 23 -77 0
65 17 62 0
3 -51 0
-69 67 -42 5 79 80 0
-11 57 -93 29 -75 0
49 -24 57 69 34 0
-41 -11 -16 0
-41 -60 -39 19 -49 0
10 32 -43 -22 0
-51 -29 -41 -74 21 0
-94 -1 -4 3 -13 0
-24 -36 -22 87 63 0
-3 68 61 -29 0
-53 -3 5 -78 19 0
-70 13 58 -3 -90 -27 0
28 75 0
25 4 30 23 -92 76 0
93 12 0
-74 58 -39 -93 -88 -14 0
-33 31 -20 89 -21 0
37 30 0
-21 -88 -29 53 -1 0
45 -43 -85 0
-86 34 -44 -82 -95 62 0
-79 -38 0
-34 -30 0
5 3 66 87 64 0
44 -8 0
85 -59 -2 -25 0
6 -76 0
87 72 52 73 0
64 23 0
-94 77 3 0
53 -45 58 -57 0
25 -64 91 46 59 -30 0
-24 11 69 -55 80 0
-24 15 40 87 5 0
77 -51 82 29 78 0
11 -3 40 0
32 -27 -6 0
95 0
